objective value:                 0.000854537118999929
x_1_2                                               1 	(obj:0)
x_2_3                                               1 	(obj:0)
x_3_2                                               1 	(obj:0)
x_4_1                                               1 	(obj:0)
x_5_1                                               1 	(obj:0)
x_6_3                                               1 	(obj:0)
x_7_3                                               1 	(obj:0)
x_8_2                                               1 	(obj:0)
x_9_1                                               1 	(obj:0)
x_10_1                                              1 	(obj:0)
x_11_2                                              1 	(obj:0)
x_12_2                                              1 	(obj:0)
x_13_3                                              1 	(obj:0)
x_14_3                                              1 	(obj:0)
x_15_1                                              1 	(obj:0)
x_16_2                                              1 	(obj:0)
x_17_3                                              1 	(obj:0)
x_18_3                                              1 	(obj:0)
x_19_2                                              1 	(obj:0)
x_20_2                                              1 	(obj:0)
ind_1                                               1 	(obj:0)
abs_1_3                                             1 	(obj:0)
ind_2                                               1 	(obj:0)
abs_2_1                                             1 	(obj:0)
ind_3                                               1 	(obj:0)
abs_3_2                                             1 	(obj:0)
epsI                             0.000854537118999929 	(obj:1)
prodt_x_19_2_t_x_20_2_coh_2                         1 	(obj:0)
prodt_x_1_2_t_x_2_1_more_coh_1           1.7184696337 	(obj:0)
prodt_x_4_1_t_x_5_1_more_coh_1           2.9442304548 	(obj:0)
prodt_x_5_1_t_x_6_1_more_coh_1           2.6758182652 	(obj:0)
prodt_x_9_1_t_x_14_1_more_coh_1          2.2816409497 	(obj:0)
prodt_x_10_1_t_x_11_1_more_coh_1         1.8504881658 	(obj:0)
prodt_x_1_2_t_x_2_2_more_coh_2           3.8640790973 	(obj:0)
prodt_x_3_2_t_x_4_2_more_coh_2           3.1486150293 	(obj:0)
prodt_x_8_2_t_x_11_2_more_coh_2          3.4042343475 	(obj:0)
prodt_x_11_2_t_x_12_2_more_coh_2         2.3780460572 	(obj:0)
prodt_x_12_2_t_x_13_2_more_coh_2         2.4808132364 	(obj:0)
prodt_x_16_2_t_x_17_2_more_coh_2     1.64460933666667 	(obj:0)
prodt_x_2_3_t_x_3_3_more_coh_3           6.0753066067 	(obj:0)
prodt_x_6_3_t_x_7_3_more_coh_3           4.6549529099 	(obj:0)
prodt_x_7_3_t_x_9_3_more_coh_3           3.7433908169 	(obj:0)
prodt_x_13_3_t_x_15_3_more_coh_3         3.5520745983 	(obj:0)
prodt_x_14_3_t_x_15_3_more_coh_3         0.7613890383 	(obj:0)
prodt_x_17_3_t_x_18_3_more_coh_3         1.1735985945 	(obj:0)
prodt_x_1_2_t_x_2_2_more_irrev1_2_1    -1.27825315275714 	(obj:0)
prodt_x_3_2_t_x_4_1_more_irrev1_2_1   -0.329064859299123 	(obj:0)
prodt_x_4_1_t_x_5_2_more_irrev1_2_1          -1.11821039 	(obj:0)
prodt_x_5_1_t_x_10_2_more_irrev1_2_1    -2.88659940117283 	(obj:0)
prodt_x_8_2_t_x_9_1_more_irrev1_2_1    -1.74986126442262 	(obj:0)
prodt_x_9_1_t_x_11_2_more_irrev1_2_1    -2.77232017946531 	(obj:0)
prodt_x_10_1_t_x_12_2_more_irrev1_2_1    -0.80007722664411 	(obj:0)
prodt_x_11_2_t_x_13_1_more_irrev1_2_1   -0.185662831582913 	(obj:0)
prodt_x_12_2_t_x_13_1_more_irrev1_2_1   -0.749278540000003 	(obj:0)
prodt_x_15_1_t_x_20_2_more_irrev1_2_1    -1.65302798982188 	(obj:0)
prodt_x_1_2_t_x_2_2_more_irrev2_2_1     1.27825315275714 	(obj:0)
prodt_x_3_2_t_x_4_1_more_irrev2_2_1    0.329064859299123 	(obj:0)
prodt_x_4_1_t_x_5_2_more_irrev2_2_1           1.11821039 	(obj:0)
prodt_x_5_1_t_x_10_2_more_irrev2_2_1     2.88659940117283 	(obj:0)
prodt_x_8_2_t_x_9_1_more_irrev2_2_1     1.74986126442262 	(obj:0)
prodt_x_9_1_t_x_11_2_more_irrev2_2_1     2.77232017946531 	(obj:0)
prodt_x_10_1_t_x_12_2_more_irrev2_2_1    0.800077226644109 	(obj:0)
prodt_x_11_2_t_x_13_1_more_irrev2_2_1    0.185662831582913 	(obj:0)
prodt_x_12_2_t_x_13_1_more_irrev2_2_1    0.749278540000003 	(obj:0)
prodt_x_15_1_t_x_20_2_more_irrev2_2_1     1.65302798982188 	(obj:0)
prodt_x_1_2_t_x_2_3_more_irrev1_3_1     1.27234497659077 	(obj:0)
prodt_x_2_3_t_x_3_1_more_irrev1_3_1      2.4182256994775 	(obj:0)
prodt_x_4_1_t_x_5_3_more_irrev1_3_1           2.21219669 	(obj:0)
prodt_x_5_1_t_x_10_3_more_irrev1_3_1    0.646705588148165 	(obj:0)
prodt_x_6_3_t_x_7_1_more_irrev1_3_1     1.06949727972867 	(obj:0)
prodt_x_7_3_t_x_10_1_more_irrev1_3_1     1.57168081000001 	(obj:0)
prodt_x_9_1_t_x_11_3_more_irrev1_3_1    0.764123664454016 	(obj:0)
prodt_x_10_1_t_x_12_3_more_irrev1_3_1      2.4305393877055 	(obj:0)
prodt_x_13_3_t_x_17_1_more_irrev1_3_1                    1 	(obj:0)
prodt_x_14_3_t_x_15_1_more_irrev1_3_1   0.0377593923038897 	(obj:0)
prodt_x_15_1_t_x_20_3_more_irrev1_3_1     1.42865097287277 	(obj:0)
prodt_x_1_2_t_x_2_3_more_irrev2_3_1    -1.27234497659077 	(obj:0)
prodt_x_2_3_t_x_3_1_more_irrev2_3_1     -2.4182256994775 	(obj:0)
prodt_x_4_1_t_x_5_3_more_irrev2_3_1          -2.21219669 	(obj:0)
prodt_x_5_1_t_x_10_3_more_irrev2_3_1   -0.646705588148166 	(obj:0)
prodt_x_6_3_t_x_7_1_more_irrev2_3_1    -1.06949727972867 	(obj:0)
prodt_x_7_3_t_x_10_1_more_irrev2_3_1    -1.57168081000001 	(obj:0)
prodt_x_9_1_t_x_11_3_more_irrev2_3_1   -0.764123664454016 	(obj:0)
prodt_x_10_1_t_x_12_3_more_irrev2_3_1     -2.4305393877055 	(obj:0)
prodt_x_13_3_t_x_17_1_more_irrev2_3_1                   -1 	(obj:0)
prodt_x_14_3_t_x_15_1_more_irrev2_3_1  -0.0377593923038897 	(obj:0)
prodt_x_15_1_t_x_20_3_more_irrev2_3_1    -1.42865097287277 	(obj:0)
prodt_x_1_2_t_x_2_3_more_irrev1_3_2    -1.27234497659077 	(obj:0)
prodt_x_2_3_t_x_3_2_more_irrev1_3_2   -0.637673587556356 	(obj:0)
prodt_x_3_2_t_x_4_3_more_irrev1_3_2     -3.5340833889705 	(obj:0)
prodt_x_6_3_t_x_7_2_more_irrev1_3_2    -3.72074004264315 	(obj:0)
prodt_x_7_3_t_x_10_2_more_irrev1_3_2   -0.353270489999999 	(obj:0)
prodt_x_8_2_t_x_9_3_more_irrev1_3_2    -1.33857637639264 	(obj:0)
prodt_x_11_2_t_x_13_3_more_irrev1_3_2    -2.84527092415521 	(obj:0)
prodt_x_12_2_t_x_14_3_more_irrev1_3_2   -0.315982050000001 	(obj:0)
prodt_x_13_3_t_x_17_2_more_irrev1_3_2   -0.836560930799029 	(obj:0)
prodt_x_14_3_t_x_15_2_more_irrev1_3_2    -2.19389584961084 	(obj:0)
prodt_x_16_2_t_x_20_3_more_irrev1_3_2   -0.498413457097062 	(obj:0)
prodt_x_17_3_t_x_18_2_more_irrev1_3_2    -0.14554245144309 	(obj:0)
prodt_x_18_3_t_x_19_2_more_irrev1_3_2     1.74599069724683 	(obj:0)
prodt_x_1_2_t_x_2_3_more_irrev2_3_2     1.27234497659077 	(obj:0)
prodt_x_2_3_t_x_3_2_more_irrev2_3_2    0.637673587556356 	(obj:0)
prodt_x_3_2_t_x_4_3_more_irrev2_3_2      3.5340833889705 	(obj:0)
prodt_x_6_3_t_x_7_2_more_irrev2_3_2     3.72074004264315 	(obj:0)
prodt_x_7_3_t_x_10_2_more_irrev2_3_2    0.353270489999998 	(obj:0)
prodt_x_8_2_t_x_9_3_more_irrev2_3_2     1.33857637639264 	(obj:0)
prodt_x_11_2_t_x_13_3_more_irrev2_3_2     2.84527092415521 	(obj:0)
prodt_x_12_2_t_x_14_3_more_irrev2_3_2    0.315982050000001 	(obj:0)
prodt_x_13_3_t_x_17_2_more_irrev2_3_2    0.836560930799029 	(obj:0)
prodt_x_14_3_t_x_15_2_more_irrev2_3_2     2.19389584961084 	(obj:0)
prodt_x_16_2_t_x_20_3_more_irrev2_3_2    0.498413457097062 	(obj:0)
prodt_x_17_3_t_x_18_2_more_irrev2_3_2     0.14554245144309 	(obj:0)
prodt_x_18_3_t_x_19_2_more_irrev2_3_2     1.74599069724683 	(obj:0)
SCIP Status        : solving was interrupted [time limit reached]
Total Time         :    3600.00
  solving          :    3600.00
  presolving       :       0.05 (included in solving)
  reading          :       0.00
  copying          :       1.19 (127 #copies) (minimal 0.00, maximal 0.02, average 0.01)
Original Problem   :
  Problem name     : ../instances/Pot4/Pot4_T_20B_alpha=16.txt.spa
  Variables        : 101 (100 binary, 0 integer, 0 implicit integer, 1 continuous)
  Constraints      : 193 initial, 193 maximal
  Objective sense  : maximize
Presolved Problem  :
  Problem name     : t_../instances/Pot4/Pot4_T_20B_alpha=16.txt.spa
  Variables        : 590 (92 binary, 0 integer, 16 implicit integer, 482 continuous)
  Constraints      : 2015 initial, 4584 maximal
Presolvers         :   ExecTime  SetupTime  Calls  FixedVars   AggrVars   ChgTypes  ChgBounds   AddHoles    DelCons    AddCons   ChgSides   ChgCoefs
  boundshift       :       0.00       0.00      0          0          0          0          0          0          0          0          0          0
  components       :       0.00       0.00      1          0          0          0          0          0          0          0          0          0
  convertinttobin  :       0.00       0.00      0          0          0          0          0          0          0          0          0          0
  domcol           :       0.01       0.00      1          0          0          0          0          0          0          0          0          0
  dualagg          :       0.00       0.00      0          0          0          0          0          0          0          0          0          0
  dualinfer        :       0.00       0.00      0          0          0          0          0          0          0          0          0          0
  gateextraction   :       0.00       0.00      3          0          0          0          0          0        108         34          0          0
  implfree         :       0.00       0.00      0          0          0          0          0          0          0          0          0          0
  implics          :       0.00       0.00      4          0          0          0          0          0          0          0          0          0
  inttobinary      :       0.00       0.00      0          0          0          0          0          0          0          0          0          0
  redvub           :       0.00       0.00      0          0          0          0          0          0          0          0          0          0
  stuffing         :       0.00       0.00      1          0          0          0          0          0          0          0          0          0
  trivial          :       0.00       0.00      7          0          0          0          0          0          0          0          0          0
  tworowbnd        :       0.00       0.00      0          0          0          0          0          0          0          0          0          0
  dualfix          :       0.00       0.00      7          4          0          0          0          0          0          0          0          0
  genvbounds       :       0.00       0.00      0          0          0          0          0          0          0          0          0          0
  probing          :       0.03       0.00      1          0          0          0          4          0          0          0          0          0
  pseudoobj        :       0.00       0.00      0          0          0          0          0          0          0          0          0          0
  varbound         :       0.00       0.00      9          0          0          0          0          0         28         28          0          0
  setppc           :       0.00       0.00     12          0          0          0          0          0          0          0          0          0
  and              :       0.00       0.00      4          0         12          0          0          0         12          0          0          0
  linear           :       0.01       0.00      9          3          1          0          4          0          7          0         12         12
  logicor          :       0.00       0.00      7          0          0          0          0          0          0          0          0          0
  bounddisjunction :       0.00       0.00      0          0          0          0          0          0          0          0          0          0
  quadratic        :       0.00       0.00      2          0          0          0          0          0          0       1915          0          0
  root node        :          -          -      -          1          -          -         82          -          -          -          -          -
Constraints        :     Number  MaxNumber  #Separate #Propagate    #EnfoLP    #EnfoPS     #Check   #ResProp    Cutoffs    DomReds       Cuts    Applied      Conss   Children
  integral         :          0          0          0          0    1954587          0     351384          0          0      28016          0          0        115    3889056
  varbound         :        869        869         77   12068281       6908          0     123471    4648978      81624   87839334          0          0          0          0
  setppc           :        110+       245         77   11986401       6908          0       1539    2470007      18340    5973184          9          0          0          0
  and              :         22         22     341068    1821315        177          0       1200     379349         66     386180       1960       1941          0          0
  linear           :        979        979         77   11968257       5201          0       1139    2439711     332882  139398007     237716     237495          0          0
  logicor          :         35+       634         73    3408319          0          0          0     131806       3858     299244          1          1          0          0
  bounddisjunction :          0+      1926          0    5726056          0          0          0     474580      14849    7143881          0          0          0          0
  countsols        :          0          0          0          0          4          0     227454          0          0          0          0          0          0          0
Constraint Timings :  TotalTime  SetupTime   Separate  Propagate     EnfoLP     EnfoPS      Check    ResProp    SB-Prop
  integral         :      19.08       0.00       0.00       0.00      19.01       0.00       0.07       0.00       0.00
  varbound         :      80.72       0.00       0.00      79.22       0.04       0.00       0.53       0.75       0.18
  setppc           :      53.03       0.00       0.00      52.34       0.00       0.00       0.00       0.56       0.13
  and              :       0.96       0.00       0.18       0.60       0.00       0.00       0.01       0.17       0.00
  linear           :     240.82       0.00       0.00     238.42       0.15       0.00       0.02       1.86       0.37
  logicor          :      12.53       0.00       0.00      12.46       0.00       0.00       0.00       0.07       0.00
  bounddisjunction :      76.71       0.00       0.00      76.46       0.00       0.00       0.00       0.21       0.04
  countsols        :       0.00       0.00       0.00       0.00       0.00       0.00       0.00       0.00       0.00
Propagators        : #Propagate   #ResProp    Cutoffs    DomReds
  dualfix          :          2          0          0          0
  genvbounds       :          0          0          0          0
  obbt             :          0          0          0          0
  probing          :          0          0          0          0
  pseudoobj        :   12530053          0       3365         80
  redcost          :    4366539          0        886     804719
  rootredcost      :          6          0          0          1
  vbounds          :   14022608      15405          0      45582
Propagator Timings :  TotalTime  SetupTime   Presolve  Propagate    ResProp    SB-Prop
  dualfix          :       0.00       0.00       0.00       0.00       0.00       0.00
  genvbounds       :       2.16       0.00       0.00       2.15       0.00       0.01
  obbt             :       0.00       0.00       0.00       0.00       0.00       0.00
  probing          :       0.03       0.00       0.03       0.00       0.00       0.00
  pseudoobj        :       4.64       0.00       0.00       4.64       0.00       0.00
  redcost          :      28.98       0.00       0.00      28.98       0.00       0.00
  rootredcost      :       2.63       0.00       0.00       2.63       0.00       0.00
  vbounds          :       5.69       0.00       0.00       5.66       0.01       0.02
Conflict Analysis  :       Time      Calls    Success    DomReds  Conflicts   Literals    Reconvs ReconvLits   LP Iters
  propagation      :       7.83     123737     122144          -    1415809       38.5       9406       44.8          -
  infeasible LP    :      10.59      73312      61592          -     993031       38.3        131       15.5          0
  bound exceed. LP :       0.00          0          0          -          0        0.0          0        0.0          0
  strong branching :       0.00          0          0          -          0        0.0          0        0.0          0
  pseudo solution  :       0.00          0          0          -          0        0.0          0        0.0          -
  applied globally :       4.26          -          -          0     296174       19.8          -          -          -
  applied locally  :          -          -          -          0       5860       34.5          -          -          -
Separators         :   ExecTime  SetupTime      Calls    Cutoffs    DomReds       Cuts    Applied      Conss
  cut pool         :       0.00                    76          -          -        973          -          -    (maximal pool size: 739)
  cgmip            :       0.00       0.00          0          0          0          0          0          0
  clique           :       0.01       0.00         77          0          0         30         26          0
  closecuts        :       0.00       0.00          0          0          0          0          0          0
  cmir             :       0.02       0.00         10          0          0        192        143          0
  disjunctive      :       0.00       0.00          0          0          0          0          0          0
  eccuts           :       0.00       0.00          0          0          0          0          0          0
  flowcover        :       0.13       0.00         15          0          0        235         11          0
  gomory           :       0.03       0.00         10          0          0          5          5          0
  impliedbounds    :       0.00       0.00         77          0          0        620        137          0
  intobj           :       0.00       0.00          0          0          0          0          0          0
  mcf              :       0.00       0.00          1          0          0          0          0          0
  oddcycle         :       0.00       0.00          0          0          0          0          0          0
  rapidlearning    :       0.00       0.00          0          0          0          0          0          0
  strongcg         :       0.05       0.00         20          0          0          4          2          0
  zerohalf         :       0.00       0.00          0          0          0          0          0          0
Pricers            :   ExecTime  SetupTime      Calls       Vars
  problem variables:       0.00          -          0          0
Branching Rules    :   ExecTime  SetupTime   BranchLP  BranchExt   BranchPS    Cutoffs    DomReds       Cuts      Conss   Children
  allfullstrong    :       0.00       0.00          0          0          0          0          0          0          0          0
  cloud            :       0.00       0.00          0          0          0          0          0          0          0          0
  distribution     :       0.00       0.00          0          0          0          0          0          0          0          0
  fullstrong       :       0.00       0.00          0          0          0          0          0          0          0          0
  inference        :       0.00       0.00          0          0          0          0          0          0          0          0
  leastinf         :       0.00       0.00          0          0          0          0          0          0          0          0
  mostinf          :       0.00       0.00          0          0          0          0          0          0          0          0
  multaggr         :       0.00       0.00          0          0          0          0          0          0          0          0
  nodereopt        :       0.00       0.00          0          0          0          0          0          0          0          0
  pscost           :       0.00       0.00          0          0          0          0          0          0          0          0
  random           :       0.00       0.00          0          0          0          0          0          0          0          0
  relpscost        :      18.19       0.00    1947679          0          0          0      28016          0       -431    3889056
Primal Heuristics  :   ExecTime  SetupTime      Calls      Found       Best
  LP solutions     :       0.00          -          -          4          -
  pseudo solutions :       0.00          -          -          0          -
  strong branching :       0.02          -          -          0          -
  SpaGreedy        :     274.98       0.00     227452          2          1
  actconsdiving    :       0.00       0.00          0          0          0
  bound            :       0.00       0.00          0          0          0
  clique           :       0.00       0.00          0          0          0
  coefdiving       :      37.06       0.00      11020          0          0
  crossover        :       1.09       0.00          2          1          1
  dins             :       0.00       0.00          0          0          0
  distributiondivin:      61.02       0.00      11019          0          0
  dualval          :       0.00       0.00          0          0          0
  feaspump         :      18.77       0.00       2004          0          0
  fixandinfer      :       0.00       0.00          0          0          0
  fracdiving       :      36.02       0.00      11019          0          0
  guideddiving     :      39.60       0.00      11019          0          0
  indicator        :       0.34       0.00          0          0          0
  intdiving        :       0.00       0.00          0          0          0
  intshifting      :       0.54       0.00        184          0          0
  linesearchdiving :      38.22       0.00      11020          0          0
  localbranching   :       0.00       0.00          0          0          0
  mutation         :       0.00       0.00          0          0          0
  nlpdiving        :       0.04       0.00          0          0          0
  objpscostdiving  :      19.03       0.00       2245          0          0
  octane           :       0.00       0.00          0          0          0
  ofins            :       0.00       0.00          0          0          0
  oneopt           :       0.73       0.00          5          0          0
  proximity        :       0.00       0.00          0          0          0
  pscostdiving     :      36.15       0.00      11019          0          0
  randrounding     :       1.48       0.00     122426          0          0
  rens             :       0.28       0.00          1          0          0
  reoptsols        :       0.00       0.00          0          0          0
  rins             :       4.11       0.00         97          0          0
  rootsoldiving    :      20.85       0.00       3154          0          0
  rounding         :       0.83       0.00      19517          0          0
  shiftandpropagate:       0.00       0.00          0          0          0
  shifting         :       1.59       0.00       5055          0          0
  simplerounding   :       0.41       0.00          0          0          0
  subnlp           :       0.81       0.00          0          0          0
  trivial          :       0.00       0.00          2          0          0
  trivialnegation  :       0.00       0.00          0          0          0
  trysol           :       0.91       0.00          0          0          0
  twoopt           :       0.00       0.00          0          0          0
  undercover       :       0.00       0.00          1          0          0
  vbounds          :       0.00       0.00          0          0          0
  veclendiving     :      40.37       0.00      11020          0          0
  zeroobj          :       0.00       0.00          0          0          0
  zirounding       :       0.71       0.00       1000          0          0
  other solutions  :          -          -          -          0          -
Diving Statistics  :      Calls      Nodes   LP Iters Backtracks   MinDepth   MaxDepth   AvgDepth  NLeafSols  MinSolDpt  MaxSolDpt  AvgSolDpt
  actconsdiving    :          0          -          -          -          -          -          -          -          -          -          -
  coefdiving       :      11020      80273     706281      15807         17         40       28.1          -          -          -          -
  distributiondivin:      11019      67834     749691      15407         17         39       27.2          -          -          -          -
  fracdiving       :      11019      76497     781264      17781         17         47       27.5          -          -          -          -
  guideddiving     :      11019      81988     904541      17433         17         49       28.3          -          -          -          -
  linesearchdiving :      11020      70942     801671      18416         17         39       27.0          -          -          -          -
  pscostdiving     :      11019      87613     744969      14442         17         50       28.9          -          -          -          -
  veclendiving     :      11020      77348     724429      20871         17         39       27.4          -          -          -          -
LP                 :       Time      Calls Iterations  Iter/call   Iter/sec  Time-0-It Calls-0-It
  primal LP        :       0.00         11          0       0.00          -       0.00         11
  dual LP          :    1486.29    3797839   54206221      17.58   36470.82      75.64     714437
  lex dual LP      :       0.00          0          0       0.00          -
  barrier LP       :       0.00          0          0       0.00          -       0.00          0
  diving/probing LP:     194.88     280220    7148652      25.51   36682.33
  strong branching :       5.90       5542     182521      32.93   30935.76
    (at root node) :          -         20       1282      64.10          -
  conflict analysis:       0.00          0          0       0.00          -
B&B Tree           :
  number of runs   :          1
  nodes            :    3634444 (1944528 internal, 1689916 leaves)
  nodes (total)    :    3634444 (1944528 internal, 1689916 leaves)
  nodes left       :     241763
  max depth        :         38
  max depth (total):         38
  backtracks       :     944913 (26.0%)
  delayed cutoffs  :      12473
  repropagations   :     148867 (4312791 domain reductions, 11355 cutoffs)
  avg switch length:       5.82
  switching time   :     527.75
Root Node          :
  First LP value   : +3.00000000000000e+00
  First LP Iters   :        361 (36100.00 Iter/sec)
  First LP Time    :       0.01
  Final Dual Bound : +7.03630996037753e-03
  Final Root Iters :       2553
Solution           :
  Solutions found  :          7 (6 improvements)
  First Solution   : +7.73994343000003e-04   (in run 1, after 1 nodes, 0.05 seconds, depth 0, found by <SpaGreedy>)
  Gap First Sol.   :   infinite
  Gap Last Sol.    :      69.54 %
  Primal Bound     : +8.54537118999929e-04   (in run 1, after 309501 nodes, 292.69 seconds, depth 26, found by <crossover>)
  Dual Bound       : +1.22028008152167e-03
  Gap              :      42.80 %
  Avg. Gap         :      40.86 % (147081.87 primal-dual integral)
